NAME : burma14.4877.tour
COMMENT : Cost = 1932_4877
COMMENT : Found by LKH [Keld Helsgaun] Thu Nov 16 17:24:02 2017
TYPE : TOUR
DIMENSION : 16
TOUR_SECTION
1
5
16
11
9
10
2
15
13
7
6
12
4
3
14
8
-1
EOF
